WARNING: for repeatability, setting FPU to use double precision
============================[ Problem Statistics ]=============================
|                                                                             |
|  Number of variables:            50                                         |
|  Number of clauses:             218                                         |
|  Parse time:                   0.00 s                                       |
|                                                                             |
============================[ Search Statistics ]==============================
| Conflicts |          ORIGINAL         |          LEARNT          | Progress |
|           |    Vars  Clauses Literals |    Limit  Clauses Lit/Cl |          |
===============================================================================
===============================================================================
restarts              : 1
conflicts             : 57             (39419 /sec)
decisions             : 62             (0.00 % random) (42877 /sec)
propagations          : 777            (537344 /sec)
conflict literals     : 184            (18.94 % deleted)
Memory used           : 20.00 MB
CPU time              : 0.001446 s

UNSATISFIABLE
